p td 22 39
4 1
4 2
5 2
6 1
6 2
6 3
6 4
7 6
7 1
7 2
8 6
8 3
10 2
11 8
13 7
13 6
14 9
14 8
14 1
15 13
15 2
15 5
16 10
16 2
18 15
19 18
19 8
20 2
20 14
21 8
21 2
21 15
21 4
21 19
22 6
22 1
22 7
22 21
22 8
